(set-logic QF_LIA)
(declare-fun x0 () Int)
(declare-fun x1 () Int)
(declare-fun x2 () Int)
(declare-fun x3 () Int)
(declare-fun x4 () Int)
(declare-fun x5 () Int)
(declare-fun x6 () Int)
(declare-fun x7 () Int)
(declare-fun x8 () Int)
(declare-fun x9 () Int)
(declare-fun A0 () Bool)
(declare-fun A1 () Bool)
(declare-fun A2 () Bool)
(declare-fun A3 () Bool)
(declare-fun A4 () Bool)
(declare-fun A5 () Bool)
(declare-fun A6 () Bool)
(declare-fun A7 () Bool)
(declare-fun A8 () Bool)
(declare-fun A9 () Bool)
(assert (let ((.def_0 (or A0 A7))) (let ((.def_1 (not .def_0))) (let ((.def_2 (not A1))) (let ((.def_3 (* (- 1) x5))) (let ((.def_4 (< .def_3 (- 1)))) (let ((.def_5 (= .def_4 .def_2))) (let ((.def_6 (or .def_5 .def_1))) (let ((.def_7 (not A4))) (let ((.def_8 (* (- 1) x8))) (let ((.def_9 (< .def_8 1))) (let ((.def_10 (and .def_9 .def_7))) (let ((.def_11 (* (- 1) x7))) (let ((.def_12 (< .def_11 (- 1)))) (let ((.def_13 (* (- 1) x6))) (let ((.def_14 (+ .def_11 .def_13))) (let ((.def_15 (< .def_14 1))) (let ((.def_16 (not .def_15))) (let ((.def_17 (or .def_16 .def_12))) (let ((.def_18 (not .def_17))) (let ((.def_19 (and .def_18 .def_10))) (let ((.def_20 (not .def_19))) (let ((.def_21 (or .def_20 .def_6))) (let ((.def_22 (* (- 1) x1))) (let ((.def_23 (< .def_22 (- 1)))) (let ((.def_24 (= .def_23 A3))) (let ((.def_25 (not .def_24))) (let ((.def_26 (not A8))) (let ((.def_27 (= .def_26 A6))) (let ((.def_28 (not .def_27))) (let ((.def_29 (and .def_28 .def_25))) (let ((.def_30 (not .def_29))) (let ((.def_31 (not A0))) (let ((.def_32 (* 1 x7))) (let ((.def_33 (< .def_32 1))) (let ((.def_34 (and .def_33 .def_31))) (let ((.def_35 (* 1 x5))) (let ((.def_36 (+ .def_35 .def_8))) (let ((.def_37 (< .def_36 1))) (let ((.def_38 (not .def_37))) (let ((.def_39 (* 1 x3))) (let ((.def_40 (< .def_39 1))) (let ((.def_41 (= .def_40 .def_38))) (let ((.def_42 (or .def_41 .def_34))) (let ((.def_43 (not .def_42))) (let ((.def_44 (and .def_43 .def_30))) (let ((.def_45 (and .def_44 .def_21))) (let ((.def_46 (not .def_45))) (let ((.def_47 (not A9))) (let ((.def_48 (< .def_3 1))) (let ((.def_49 (not .def_48))) (let ((.def_50 (and .def_49 .def_47))) (let ((.def_51 (* (- 1) x3))) (let ((.def_52 (< .def_51 (- 1)))) (let ((.def_53 (< .def_22 1))) (let ((.def_54 (or .def_53 .def_52))) (let ((.def_55 (not .def_54))) (let ((.def_56 (and .def_55 .def_50))) (let ((.def_57 (not .def_56))) (let ((.def_58 (not A2))) (let ((.def_59 (and A5 .def_58))) (let ((.def_60 (not .def_59))) (let ((.def_61 (* 1 x8))) (let ((.def_62 (* (- 1) x2))) (let ((.def_63 (+ .def_62 .def_61))) (let ((.def_64 (< .def_63 1))) (let ((.def_65 (* 1 x6))) (let ((.def_66 (< .def_65 (- 1)))) (let ((.def_67 (and .def_66 .def_64))) (let ((.def_68 (not .def_67))) (let ((.def_69 (and .def_68 .def_60))) (let ((.def_70 (= .def_69 .def_57))) (let ((.def_71 (not .def_40))) (let ((.def_72 (* (- 1) x9))) (let ((.def_73 (< .def_72 (- 1)))) (let ((.def_74 (not .def_73))) (let ((.def_75 (or .def_74 .def_71))) (let ((.def_76 (not A5))) (let ((.def_77 (and .def_66 .def_76))) (let ((.def_78 (not .def_77))) (let ((.def_79 (or .def_78 .def_75))) (let ((.def_80 (not .def_79))) (let ((.def_81 (and A8 A9))) (let ((.def_82 (< .def_51 1))) (let ((.def_83 (not .def_82))) (let ((.def_84 (not A6))) (let ((.def_85 (or .def_84 .def_83))) (let ((.def_86 (and .def_85 .def_81))) (let ((.def_87 (not .def_86))) (let ((.def_88 (or .def_87 .def_80))) (let ((.def_89 (and .def_88 .def_70))) (let ((.def_90 (not .def_89))) (let ((.def_91 (or .def_90 .def_46))) (let ((.def_92 (or A8 A4))) (let ((.def_93 (< .def_13 (- 1)))) (let ((.def_94 (not .def_93))) (let ((.def_95 (= .def_7 .def_94))) (let ((.def_96 (and .def_95 .def_92))) (let ((.def_97 (or .def_26 A8))) (let ((.def_98 (not .def_97))) (let ((.def_99 (and .def_47 .def_7))) (let ((.def_100 (not .def_99))) (let ((.def_101 (and .def_100 .def_98))) (let ((.def_102 (and .def_101 .def_96))) (let ((.def_103 (+ .def_13 .def_39))) (let ((.def_104 (< .def_103 (- 1)))) (let ((.def_105 (and .def_104 A3))) (let ((.def_106 (not .def_105))) (let ((.def_107 (* (- 1) x0))) (let ((.def_108 (+ .def_51 .def_107))) (let ((.def_109 (< .def_108 (- 1)))) (let ((.def_110 (not .def_109))) (let ((.def_111 (or .def_110 A8))) (let ((.def_112 (not .def_111))) (let ((.def_113 (and .def_112 .def_106))) (let ((.def_114 (+ .def_62 .def_51))) (let ((.def_115 (< .def_114 1))) (let ((.def_116 (not .def_115))) (let ((.def_117 (and .def_116 A0))) (let ((.def_118 (not .def_117))) (let ((.def_119 (* 1 x1))) (let ((.def_120 (+ .def_35 .def_119))) (let ((.def_121 (< .def_120 (- 1)))) (let ((.def_122 (not .def_121))) (let ((.def_123 (and A2 .def_122))) (let ((.def_124 (and .def_123 .def_118))) (let ((.def_125 (not .def_124))) (let ((.def_126 (and .def_125 .def_113))) (let ((.def_127 (or .def_126 .def_102))) (let ((.def_128 (not .def_127))) (let ((.def_129 (not .def_53))) (let ((.def_130 (* 1 x9))) (let ((.def_131 (< .def_130 (- 1)))) (let ((.def_132 (and .def_131 .def_129))) (let ((.def_133 (+ .def_13 .def_61))) (let ((.def_134 (< .def_133 1))) (let ((.def_135 (and A0 .def_134))) (let ((.def_136 (not .def_135))) (let ((.def_137 (and .def_136 .def_132))) (let ((.def_138 (< .def_62 1))) (let ((.def_139 (< .def_130 1))) (let ((.def_140 (not .def_139))) (let ((.def_141 (or .def_140 .def_138))) (let ((.def_142 (not A3))) (let ((.def_143 (and .def_26 .def_142))) (let ((.def_144 (not .def_143))) (let ((.def_145 (and .def_144 .def_141))) (let ((.def_146 (or .def_145 .def_137))) (let ((.def_147 (not .def_146))) (let ((.def_148 (or A4 .def_140))) (let ((.def_149 (< .def_107 1))) (let ((.def_150 (not .def_149))) (let ((.def_151 (+ .def_107 .def_11))) (let ((.def_152 (< .def_151 (- 1)))) (let ((.def_153 (and .def_152 .def_150))) (let ((.def_154 (and .def_153 .def_148))) (let ((.def_155 (+ .def_65 .def_61))) (let ((.def_156 (< .def_155 (- 1)))) (let ((.def_157 (not .def_156))) (let ((.def_158 (+ .def_13 .def_32))) (let ((.def_159 (< .def_158 (- 1)))) (let ((.def_160 (= .def_159 .def_157))) (let ((.def_161 (+ .def_72 .def_61))) (let ((.def_162 (< .def_161 1))) (let ((.def_163 (not .def_162))) (let ((.def_164 (or .def_163 A4))) (let ((.def_165 (and .def_164 .def_160))) (let ((.def_166 (or .def_165 .def_154))) (let ((.def_167 (not .def_166))) (let ((.def_168 (and .def_167 .def_147))) (let ((.def_169 (and .def_168 .def_128))) (let ((.def_170 (not .def_169))) (let ((.def_171 (and .def_170 .def_91))) (let ((.def_172 (and .def_26 A0))) (let ((.def_173 (not .def_172))) (let ((.def_174 (and A3 A9))) (let ((.def_175 (or .def_174 .def_173))) (let ((.def_176 (and .def_7 A4))) (let ((.def_177 (not .def_176))) (let ((.def_178 (and A1 A3))) (let ((.def_179 (or .def_178 .def_177))) (let ((.def_180 (or .def_179 .def_175))) (let ((.def_181 (not .def_180))) (let ((.def_182 (+ .def_72 .def_65))) (let ((.def_183 (< .def_182 1))) (let ((.def_184 (not A7))) (let ((.def_185 (and .def_184 .def_183))) (let ((.def_186 (not .def_185))) (let ((.def_187 (* 1 x4))) (let ((.def_188 (+ .def_119 .def_187))) (let ((.def_189 (< .def_188 (- 1)))) (let ((.def_190 (and .def_189 .def_184))) (let ((.def_191 (and .def_190 .def_186))) (let ((.def_192 (+ .def_11 .def_35))) (let ((.def_193 (< .def_192 1))) (let ((.def_194 (not .def_193))) (let ((.def_195 (+ .def_22 .def_65))) (let ((.def_196 (< .def_195 (- 1)))) (let ((.def_197 (not .def_196))) (let ((.def_198 (= .def_197 .def_194))) (let ((.def_199 (< .def_187 1))) (let ((.def_200 (and A6 .def_199))) (let ((.def_201 (or .def_200 .def_198))) (let ((.def_202 (and .def_201 .def_191))) (let ((.def_203 (and .def_202 .def_181))) (let ((.def_204 (and A7 A6))) (let ((.def_205 (not .def_204))) (let ((.def_206 (or .def_58 .def_2))) (let ((.def_207 (not .def_206))) (let ((.def_208 (or .def_207 .def_205))) (let ((.def_209 (or A6 .def_26))) (let ((.def_210 (* 1 x0))) (let ((.def_211 (< .def_210 1))) (let ((.def_212 (or .def_211 .def_26))) (let ((.def_213 (and .def_212 .def_209))) (let ((.def_214 (not .def_213))) (let ((.def_215 (or .def_214 .def_208))) (let ((.def_216 (not .def_215))) (let ((.def_217 (* 1 x2))) (let ((.def_218 (< .def_217 (- 1)))) (let ((.def_219 (and .def_47 .def_218))) (let ((.def_220 (not .def_218))) (let ((.def_221 (< .def_65 1))) (let ((.def_222 (or .def_221 .def_220))) (let ((.def_223 (not .def_222))) (let ((.def_224 (or .def_223 .def_219))) (let ((.def_225 (not .def_224))) (let ((.def_226 (+ .def_65 .def_130))) (let ((.def_227 (< .def_226 1))) (let ((.def_228 (not .def_227))) (let ((.def_229 (= .def_7 .def_228))) (let ((.def_230 (< .def_62 (- 1)))) (let ((.def_231 (< .def_187 (- 1)))) (let ((.def_232 (= .def_231 .def_230))) (let ((.def_233 (and .def_232 .def_229))) (let ((.def_234 (and .def_233 .def_225))) (let ((.def_235 (not .def_234))) (let ((.def_236 (and .def_235 .def_216))) (let ((.def_237 (not .def_236))) (let ((.def_238 (or .def_237 .def_203))) (let ((.def_239 (not .def_238))) (let ((.def_240 (* (- 1) x4))) (let ((.def_241 (+ .def_240 .def_22))) (let ((.def_242 (< .def_241 (- 1)))) (let ((.def_243 (not .def_242))) (let ((.def_244 (= .def_243 A6))) (let ((.def_245 (+ .def_39 .def_130))) (let ((.def_246 (< .def_245 (- 1)))) (let ((.def_247 (and .def_246 .def_26))) (let ((.def_248 (not .def_247))) (let ((.def_249 (and .def_248 .def_244))) (let ((.def_250 (not .def_249))) (let ((.def_251 (+ .def_65 .def_72))) (let ((.def_252 (< .def_251 1))) (let ((.def_253 (not .def_252))) (let ((.def_254 (and A1 .def_253))) (let ((.def_255 (not .def_254))) (let ((.def_256 (+ .def_210 .def_187))) (let ((.def_257 (< .def_256 1))) (let ((.def_258 (or .def_257 .def_184))) (let ((.def_259 (or .def_258 .def_255))) (let ((.def_260 (not .def_259))) (let ((.def_261 (and .def_260 .def_250))) (let ((.def_262 (not .def_261))) (let ((.def_263 (= A2 A9))) (let ((.def_264 (not .def_263))) (let ((.def_265 (+ .def_210 .def_72))) (let ((.def_266 (< .def_265 (- 1)))) (let ((.def_267 (not .def_266))) (let ((.def_268 (or .def_7 .def_267))) (let ((.def_269 (or .def_268 .def_264))) (let ((.def_270 (+ .def_51 .def_119))) (let ((.def_271 (< .def_270 (- 1)))) (let ((.def_272 (or A3 .def_271))) (let ((.def_273 (not .def_272))) (let ((.def_274 (< .def_35 1))) (let ((.def_275 (not .def_274))) (let ((.def_276 (< .def_103 1))) (let ((.def_277 (or .def_276 .def_275))) (let ((.def_278 (and .def_277 .def_273))) (let ((.def_279 (not .def_278))) (let ((.def_280 (or .def_279 .def_269))) (let ((.def_281 (not .def_280))) (let ((.def_282 (or .def_281 .def_262))) (let ((.def_283 (and A1 .def_184))) (let ((.def_284 (+ .def_13 .def_72))) (let ((.def_285 (< .def_284 1))) (let ((.def_286 (not .def_285))) (let ((.def_287 (or .def_93 .def_286))) (let ((.def_288 (not .def_287))) (let ((.def_289 (and .def_288 .def_283))) (let ((.def_290 (and .def_31 A4))) (let ((.def_291 (+ .def_39 .def_61))) (let ((.def_292 (< .def_291 (- 1)))) (let ((.def_293 (and .def_292 .def_2))) (let ((.def_294 (and .def_293 .def_290))) (let ((.def_295 (not .def_294))) (let ((.def_296 (and .def_295 .def_289))) (let ((.def_297 (not .def_296))) (let ((.def_298 (+ .def_61 .def_217))) (let ((.def_299 (< .def_298 1))) (let ((.def_300 (not .def_299))) (let ((.def_301 (or .def_300 .def_31))) (let ((.def_302 (or .def_150 .def_26))) (let ((.def_303 (not .def_302))) (let ((.def_304 (and .def_303 .def_301))) (let ((.def_305 (or .def_131 A7))) (let ((.def_306 (or A1 A1))) (let ((.def_307 (not .def_306))) (let ((.def_308 (and .def_307 .def_305))) (let ((.def_309 (and .def_308 .def_304))) (let ((.def_310 (and .def_309 .def_297))) (let ((.def_311 (not .def_310))) (let ((.def_312 (and .def_311 .def_282))) (let ((.def_313 (or .def_312 .def_239))) (let ((.def_314 (and .def_313 .def_171))) (let ((.def_315 (and .def_58 .def_76))) (let ((.def_316 (+ .def_62 .def_130))) (let ((.def_317 (< .def_316 (- 1)))) (let ((.def_318 (or A4 .def_317))) (let ((.def_319 (or .def_318 .def_315))) (let ((.def_320 (not .def_319))) (let ((.def_321 (< .def_61 1))) (let ((.def_322 (not .def_321))) (let ((.def_323 (not .def_33))) (let ((.def_324 (or .def_323 .def_322))) (let ((.def_325 (not .def_324))) (let ((.def_326 (and .def_84 .def_184))) (let ((.def_327 (not .def_326))) (let ((.def_328 (and .def_327 .def_325))) (let ((.def_329 (not .def_328))) (let ((.def_330 (and .def_329 .def_320))) (let ((.def_331 (+ .def_62 .def_240))) (let ((.def_332 (< .def_331 (- 1)))) (let ((.def_333 (not .def_332))) (let ((.def_334 (and .def_333 .def_76))) (let ((.def_335 (and .def_26 .def_26))) (let ((.def_336 (or .def_335 .def_334))) (let ((.def_337 (< .def_63 (- 1)))) (let ((.def_338 (and .def_337 .def_211))) (let ((.def_339 (= .def_76 .def_142))) (let ((.def_340 (not .def_339))) (let ((.def_341 (and .def_340 .def_338))) (let ((.def_342 (and .def_341 .def_336))) (let ((.def_343 (not .def_342))) (let ((.def_344 (or .def_343 .def_330))) (let ((.def_345 (not .def_344))) (let ((.def_346 (not .def_221))) (let ((.def_347 (or A5 .def_346))) (let ((.def_348 (+ .def_39 .def_8))) (let ((.def_349 (< .def_348 (- 1)))) (let ((.def_350 (or .def_349 .def_58))) (let ((.def_351 (or .def_350 .def_347))) (let ((.def_352 (and .def_26 A2))) (let ((.def_353 (not .def_352))) (let ((.def_354 (or A4 A5))) (let ((.def_355 (not .def_354))) (let ((.def_356 (or .def_355 .def_353))) (let ((.def_357 (not .def_356))) (let ((.def_358 (or .def_357 .def_351))) (let ((.def_359 (not .def_358))) (let ((.def_360 (< .def_13 1))) (let ((.def_361 (not .def_360))) (let ((.def_362 (or .def_31 .def_361))) (let ((.def_363 (+ .def_8 .def_39))) (let ((.def_364 (< .def_363 (- 1)))) (let ((.def_365 (and A2 .def_364))) (let ((.def_366 (not .def_365))) (let ((.def_367 (or .def_366 .def_362))) (let ((.def_368 (+ .def_72 .def_107))) (let ((.def_369 (< .def_368 1))) (let ((.def_370 (not .def_369))) (let ((.def_371 (or .def_370 .def_231))) (let ((.def_372 (or .def_52 A7))) (let ((.def_373 (not .def_372))) (let ((.def_374 (or .def_373 .def_371))) (let ((.def_375 (and .def_374 .def_367))) (let ((.def_376 (not .def_375))) (let ((.def_377 (and .def_376 .def_359))) (let ((.def_378 (not .def_377))) (let ((.def_379 (and .def_378 .def_345))) (let ((.def_380 (not .def_379))) (let ((.def_381 (and .def_26 A4))) (let ((.def_382 (and .def_58 .def_26))) (let ((.def_383 (and .def_382 .def_381))) (let ((.def_384 (not .def_383))) (let ((.def_385 (or A1 A8))) (let ((.def_386 (not .def_385))) (let ((.def_387 (or A6 .def_142))) (let ((.def_388 (not .def_387))) (let ((.def_389 (or .def_388 .def_386))) (let ((.def_390 (or .def_389 .def_384))) (let ((.def_391 (not .def_390))) (let ((.def_392 (< .def_195 1))) (let ((.def_393 (not .def_392))) (let ((.def_394 (+ .def_107 .def_62))) (let ((.def_395 (< .def_394 1))) (let ((.def_396 (not .def_395))) (let ((.def_397 (and .def_396 .def_393))) (let ((.def_398 (not .def_397))) (let ((.def_399 (or .def_218 A8))) (let ((.def_400 (not .def_399))) (let ((.def_401 (and .def_400 .def_398))) (let ((.def_402 (or .def_184 .def_84))) (let ((.def_403 (not .def_402))) (let ((.def_404 (or A6 A2))) (let ((.def_405 (and .def_404 .def_403))) (let ((.def_406 (or .def_405 .def_401))) (let ((.def_407 (not .def_406))) (let ((.def_408 (or .def_407 .def_391))) (let ((.def_409 (+ .def_62 .def_39))) (let ((.def_410 (< .def_409 1))) (let ((.def_411 (not .def_410))) (let ((.def_412 (or .def_74 .def_411))) (let ((.def_413 (not .def_412))) (let ((.def_414 (+ .def_3 .def_61))) (let ((.def_415 (< .def_414 (- 1)))) (let ((.def_416 (or .def_415 .def_47))) (let ((.def_417 (and .def_416 .def_413))) (let ((.def_418 (not .def_417))) (let ((.def_419 (< .def_210 (- 1)))) (let ((.def_420 (and .def_419 A8))) (let ((.def_421 (not .def_12))) (let ((.def_422 (and .def_421 .def_2))) (let ((.def_423 (not .def_422))) (let ((.def_424 (and .def_423 .def_420))) (let ((.def_425 (= .def_424 .def_418))) (let ((.def_426 (not .def_425))) (let ((.def_427 (= A2 .def_47))) (let ((.def_428 (not .def_427))) (let ((.def_429 (+ .def_65 .def_3))) (let ((.def_430 (< .def_429 1))) (let ((.def_431 (and .def_430 .def_184))) (let ((.def_432 (not .def_431))) (let ((.def_433 (or .def_432 .def_428))) (let ((.def_434 (or .def_184 A1))) (let ((.def_435 (and .def_7 .def_84))) (let ((.def_436 (not .def_435))) (let ((.def_437 (and .def_436 .def_434))) (let ((.def_438 (not .def_437))) (let ((.def_439 (and .def_438 .def_433))) (let ((.def_440 (and .def_439 .def_426))) (let ((.def_441 (not .def_440))) (let ((.def_442 (or .def_441 .def_408))) (let ((.def_443 (not .def_442))) (let ((.def_444 (and .def_443 .def_380))) (let ((.def_445 (not .def_444))) (let ((.def_446 (< .def_119 1))) (let ((.def_447 (or .def_446 .def_84))) (let ((.def_448 (not .def_447))) (let ((.def_449 (< .def_8 (- 1)))) (let ((.def_450 (and .def_449 .def_26))) (let ((.def_451 (or .def_450 .def_448))) (let ((.def_452 (not .def_451))) (let ((.def_453 (or A0 A8))) (let ((.def_454 (< .def_241 1))) (let ((.def_455 (not .def_454))) (let ((.def_456 (and A6 .def_455))) (let ((.def_457 (and .def_456 .def_453))) (let ((.def_458 (or .def_457 .def_452))) (let ((.def_459 (not .def_458))) (let ((.def_460 (and .def_31 .def_82))) (let ((.def_461 (< .def_35 (- 1)))) (let ((.def_462 (or A7 .def_461))) (let ((.def_463 (not .def_462))) (let ((.def_464 (and .def_463 .def_460))) (let ((.def_465 (not .def_464))) (let ((.def_466 (or A5 .def_7))) (let ((.def_467 (+ .def_187 .def_22))) (let ((.def_468 (< .def_467 (- 1)))) (let ((.def_469 (and .def_468 .def_49))) (let ((.def_470 (and .def_469 .def_466))) (let ((.def_471 (or .def_470 .def_465))) (let ((.def_472 (not .def_471))) (let ((.def_473 (= .def_472 .def_459))) (let ((.def_474 (not .def_473))) (let ((.def_475 (+ .def_22 .def_210))) (let ((.def_476 (< .def_475 1))) (let ((.def_477 (= .def_7 .def_476))) (let ((.def_478 (not .def_477))) (let ((.def_479 (+ .def_11 .def_62))) (let ((.def_480 (< .def_479 1))) (let ((.def_481 (not .def_480))) (let ((.def_482 (and .def_481 A7))) (let ((.def_483 (not .def_482))) (let ((.def_484 (= .def_483 .def_478))) (let ((.def_485 (+ .def_62 .def_13))) (let ((.def_486 (< .def_485 (- 1)))) (let ((.def_487 (not .def_486))) (let ((.def_488 (+ .def_22 .def_51))) (let ((.def_489 (< .def_488 1))) (let ((.def_490 (not .def_489))) (let ((.def_491 (or .def_490 .def_487))) (let ((.def_492 (or A9 A2))) (let ((.def_493 (and .def_492 .def_491))) (let ((.def_494 (and .def_493 .def_484))) (let ((.def_495 (+ .def_130 .def_187))) (let ((.def_496 (< .def_495 1))) (let ((.def_497 (and .def_496 A1))) (let ((.def_498 (or A9 .def_31))) (let ((.def_499 (not .def_498))) (let ((.def_500 (or .def_499 .def_497))) (let ((.def_501 (< .def_119 (- 1)))) (let ((.def_502 (not .def_501))) (let ((.def_503 (and .def_142 .def_502))) (let ((.def_504 (+ .def_119 .def_130))) (let ((.def_505 (< .def_504 (- 1)))) (let ((.def_506 (not .def_505))) (let ((.def_507 (or .def_184 .def_506))) (let ((.def_508 (or .def_507 .def_503))) (let ((.def_509 (not .def_508))) (let ((.def_510 (or .def_509 .def_500))) (let ((.def_511 (= .def_510 .def_494))) (let ((.def_512 (not .def_511))) (let ((.def_513 (= .def_512 .def_474))) (let ((.def_514 (not .def_230))) (let ((.def_515 (and A8 .def_514))) (let ((.def_516 (not .def_515))) (let ((.def_517 (and .def_84 .def_76))) (let ((.def_518 (and .def_517 .def_516))) (let ((.def_519 (not .def_518))) (let ((.def_520 (and A7 .def_26))) (let ((.def_521 (not .def_520))) (let ((.def_522 (+ .def_240 .def_65))) (let ((.def_523 (< .def_522 1))) (let ((.def_524 (not .def_523))) (let ((.def_525 (and A6 .def_524))) (let ((.def_526 (not .def_525))) (let ((.def_527 (and .def_526 .def_521))) (let ((.def_528 (or .def_527 .def_519))) (let ((.def_529 (not .def_528))) (let ((.def_530 (or .def_31 .def_58))) (let ((.def_531 (or A7 A2))) (let ((.def_532 (not .def_531))) (let ((.def_533 (or .def_532 .def_530))) (let ((.def_534 (not .def_533))) (let ((.def_535 (or .def_31 .def_446))) (let ((.def_536 (not .def_535))) (let ((.def_537 (+ .def_187 .def_130))) (let ((.def_538 (< .def_537 1))) (let ((.def_539 (and .def_538 .def_31))) (let ((.def_540 (and .def_539 .def_536))) (let ((.def_541 (not .def_540))) (let ((.def_542 (and .def_541 .def_534))) (let ((.def_543 (or .def_542 .def_529))) (let ((.def_544 (not .def_543))) (let ((.def_545 (and .def_84 .def_2))) (let ((.def_546 (< .def_240 1))) (let ((.def_547 (= A2 .def_546))) (let ((.def_548 (or .def_547 .def_545))) (let ((.def_549 (and A3 .def_142))) (let ((.def_550 (+ .def_35 .def_61))) (let ((.def_551 (< .def_550 1))) (let ((.def_552 (not .def_551))) (let ((.def_553 (or A7 .def_552))) (let ((.def_554 (and .def_553 .def_549))) (let ((.def_555 (or .def_554 .def_548))) (let ((.def_556 (not .def_555))) (let ((.def_557 (not .def_4))) (let ((.def_558 (or .def_557 A8))) (let ((.def_559 (or A9 .def_2))) (let ((.def_560 (or .def_559 .def_558))) (let ((.def_561 (not .def_560))) (let ((.def_562 (= A7 A6))) (let ((.def_563 (+ .def_13 .def_130))) (let ((.def_564 (< .def_563 1))) (let ((.def_565 (not .def_564))) (let ((.def_566 (or A4 .def_565))) (let ((.def_567 (and .def_566 .def_562))) (let ((.def_568 (not .def_567))) (let ((.def_569 (or .def_568 .def_561))) (let ((.def_570 (and .def_569 .def_556))) (let ((.def_571 (not .def_570))) (let ((.def_572 (or .def_571 .def_544))) (let ((.def_573 (not .def_572))) (let ((.def_574 (and .def_573 .def_513))) (let ((.def_575 (not .def_574))) (let ((.def_576 (and .def_575 .def_445))) (let ((.def_577 (not .def_576))) (let ((.def_578 (or .def_577 .def_314))) (let ((.def_579 (not .def_578))) (let ((.def_580 (<= x9 1))) (let ((.def_581 (<= 0 x9))) (let ((.def_582 (<= x8 1))) (let ((.def_583 (<= 0 x8))) (let ((.def_584 (<= x7 1))) (let ((.def_585 (<= 0 x7))) (let ((.def_586 (<= x6 1))) (let ((.def_587 (<= 0 x6))) (let ((.def_588 (<= x5 1))) (let ((.def_589 (<= 0 x5))) (let ((.def_590 (<= x4 1))) (let ((.def_591 (<= 0 x4))) (let ((.def_592 (<= x3 1))) (let ((.def_593 (<= 0 x3))) (let ((.def_594 (<= x2 1))) (let ((.def_595 (<= 0 x2))) (let ((.def_596 (<= x1 1))) (let ((.def_597 (<= 0 x1))) (let ((.def_598 (<= x0 1))) (let ((.def_599 (<= 0 x0))) (let ((.def_600 (and .def_599 .def_598 .def_597 .def_596 .def_595 .def_594 .def_593 .def_592 .def_591 .def_590 .def_589 .def_588 .def_587 .def_586 .def_585 .def_584 .def_583 .def_582 .def_581 .def_580 .def_579))) .def_600))))))))))))))))))))))))))))))))))))))))))))))))))))))))))))))))))))))))))))))))))))))))))))))))))))))))))))))))))))))))))))))))))))))))))))))))))))))))))))))))))))))))))))))))))))))))))))))))))))))))))))))))))))))))))))))))))))))))))))))))))))))))))))))))))))))))))))))))))))))))))))))))))))))))))))))))))))))))))))))))))))))))))))))))))))))))))))))))))))))))))))))))))))))))))))))))))))))))))))))))))))))))))))))))))))))))))))))))))))))))))))))))))))))))))))))))))))))))))))))))))))))))))))))))))))))))))))))))))))))))))))))))))))))))))))))))))))))))))))))))))))))))))))))))))))))))))))))))))))))))))
(check-sat)
